
Welcome to IBM(R) ILOG(R) CPLEX(R) Interactive Optimizer 22.1.1.0
  with Simplex, Mixed Integer & Barrier Optimizers
5725-A06 5725-A29 5724-Y48 5724-Y49 5724-Y54 5724-Y55 5655-Y21
Copyright IBM Corp. 1988, 2022.  All Rights Reserved.

Type 'help' for a list of available commands.
Type 'help' followed by a command name for more
information on commands.

CPLEX> Selected objective sense:  MINIMIZE
Selected objective  name:  00000000
Selected RHS        name:  RHS1
Selected bound      name:  BOUND
Problem 'ee.mps' read.
Read time = 0.03 sec. (3.14 ticks)
CPLEX> New value for time limit in seconds: 7200
CPLEX> New value for parallel optimization mode: -1
CPLEX> New value for default parallel thread count: 40
CPLEX> New value for mixed integer optimality gap tolerance: 1e-13
CPLEX> Version identifier: 22.1.1.0 | 2022-11-28 | 9160aff4d
CPXPARAM_Threads                                 40
CPXPARAM_Parallel                                -1
CPXPARAM_TimeLimit                               7200
CPXPARAM_MIP_Tolerances_MIPGap                   1e-13
Found incumbent of value 0.000000 after 0.00 sec. (0.31 ticks)
Tried aggregator 2 times.
MIP Presolve eliminated 181 rows and 2745 columns.
MIP Presolve modified 5862 coefficients.
Aggregator did 713 substitutions.
Reduced MIP has 3623 rows, 7739 columns, and 28643 nonzeros.
Reduced MIP has 7739 binaries, 0 generals, 0 SOSs, and 0 indicators.
Presolve time = 0.07 sec. (68.57 ticks)
Probing time = 0.03 sec. (5.29 ticks)
Tried aggregator 1 time.
Detecting symmetries...
Reduced MIP has 3623 rows, 7739 columns, and 28643 nonzeros.
Reduced MIP has 7739 binaries, 0 generals, 0 SOSs, and 0 indicators.
Presolve time = 0.02 sec. (21.84 ticks)
Probing time = 0.02 sec. (5.09 ticks)
Clique table members: 18551.
MIP emphasis: balance optimality and feasibility.
MIP search method: dynamic search.
Parallel mode: opportunistic, using up to 40 threads.
Root relaxation solution time = 0.08 sec. (70.86 ticks)

        Nodes                                         Cuts/
   Node  Left     Objective  IInf  Best Integer    Best Bound    ItCnt     Gap

*     0+    0                            0.0000  -1.31000e+13              --- 
*     0+    0                      -4.40000e+12  -1.31000e+13           197.73%
*     0+    0                      -5.50000e+12  -1.31000e+13           138.18%
      0     0  -1.30900e+13    47  -5.50000e+12  -1.30900e+13     1903  138.00%
*     0+    0                      -1.30900e+13  -1.30900e+13             0.00%
*     0+    0                      -1.30900e+13  -1.30900e+13             0.00%
      0     0  -1.30900e+13    54  -1.30900e+13      Cuts: 40     2720    0.00%
      0     0  -1.30900e+13   102  -1.30900e+13      Cuts: 50     2932    0.00%
*     0+    0                      -1.30900e+13  -1.30900e+13             0.00%

Repeating presolve.
Tried aggregator 2 times.
MIP Presolve eliminated 1656 rows and 4014 columns.
MIP Presolve modified 81 coefficients.
Aggregator did 395 substitutions.
Reduced MIP has 1572 rows, 3302 columns, and 11712 nonzeros.
Reduced MIP has 3302 binaries, 0 generals, 0 SOSs, and 0 indicators.
Presolve time = 0.04 sec. (42.98 ticks)
Probing time = 0.02 sec. (11.79 ticks)
Tried aggregator 1 time.
MIP Presolve eliminated 62 rows and 48 columns.
Reduced MIP has 1510 rows, 3244 columns, and 11550 nonzeros.
Reduced MIP has 3244 binaries, 0 generals, 0 SOSs, and 0 indicators.
Presolve time = 0.01 sec. (10.31 ticks)
Probing time = 0.03 sec. (11.02 ticks)
Tried aggregator 1 time.
Detecting symmetries...
MIP Presolve eliminated 5 rows and 5 columns.
Reduced MIP has 1505 rows, 3239 columns, and 11535 nonzeros.
Reduced MIP has 3239 binaries, 0 generals, 0 SOSs, and 0 indicators.
Presolve time = 0.01 sec. (12.96 ticks)
Represolve time = 0.14 sec. (106.25 ticks)
Probing time = 0.01 sec. (3.61 ticks)
Clique table members: 7653.
MIP emphasis: balance optimality and feasibility.
MIP search method: dynamic search.
Parallel mode: opportunistic, using up to 40 threads.
Root relaxation solution time = 0.06 sec. (30.46 ticks)

        Nodes                                         Cuts/
   Node  Left     Objective  IInf  Best Integer    Best Bound    ItCnt     Gap

*     0+    0                      -1.30900e+13  -1.30900e+13             0.00%
      0     0  -1.30900e+13    62  -1.30900e+13  -1.30900e+13     3900    0.00%
*     0+    0                      -1.30900e+13  -1.30900e+13             0.00%
      0     0  -1.30900e+13    96  -1.30900e+13      Cuts: 77     4185    0.00%
      0     0  -1.30900e+13   120  -1.30900e+13      Cuts: 61     4393    0.00%
      0     2  -1.30900e+13   113  -1.30900e+13  -1.30900e+13     4393    0.00%
Elapsed time = 1.49 sec. (913.35 ticks, tree = 0.02 MB, solutions = 7)
   1549    79  -1.30900e+13   109  -1.30900e+13  -1.30900e+13    36367    0.00%
   4011   105  -1.30900e+13    55  -1.30900e+13  -1.30900e+13   187606    0.00%
   5862   182        cutoff        -1.30900e+13  -1.30900e+13   148767    0.00%
   6700    66        cutoff        -1.30900e+13  -1.30900e+13   236453    0.00%
   6973    24  -1.30900e+13    74  -1.30900e+13  -1.30900e+13   276407    0.00%

Clique cuts applied:  22
Cover cuts applied:  402
Flow cuts applied:  6
Mixed integer rounding cuts applied:  6
Zero-half cuts applied:  15
Lift and project cuts applied:  14
Gomory fractional cuts applied:  21

Root node processing (before b&c):
  Real time             =    1.16 sec. (913.02 ticks)
Parallel b&c, 40 threads:
  Real time             =    2.34 sec. (1425.66 ticks)
  Sync time (average)   =    0.98 sec.
  Wait time (average)   =    0.00 sec.
                          ------------
Total (root+branch&cut) =    3.51 sec. (2338.68 ticks)

Solution pool: 9 solutions saved.

MIP - Integer optimal solution:  Objective = -1.3089999991e+13
Solution time =    3.59 sec.  Iterations = 312106  Nodes = 7045
Deterministic time = 2338.71 ticks  (652.04 ticks/sec)

CPLEX> Solution 'p10' written to file 'ee.sol'.
CPLEX> 